c generated by sgen1
c Command: ./sgen1 -sat -n 20 -s 743 
p cnf 20 48
-1 -2 0
-1 -3 0
-1 -4 0
-1 -5 0
-2 -3 0
-2 -4 0
-2 -5 0
-3 -4 0
-3 -5 0
-4 -5 0
-6 -7 0
-6 -8 0
-6 -9 0
-6 -10 0
-7 -8 0
-7 -9 0
-7 -10 0
-8 -9 0
-8 -10 0
-9 -10 0
-11 -12 0
-11 -13 0
-11 -14 0
-11 -15 0
-12 -13 0
-12 -14 0
-12 -15 0
-13 -14 0
-13 -15 0
-14 -15 0
-16 -17 0
-16 -18 0
-16 -19 0
-16 -20 0
-17 -18 0
-17 -19 0
-17 -20 0
-18 -19 0
-18 -20 0
-19 -20 0
9 2 11 16 12 0
5 14 8 20 6 0
7 3 13 18 1 0
4 17 10 19 15 0
6 2 17 10 12 0
20 14 8 1 4 0
15 3 13 16 9 0
18 5 11 19 7 0
